sing20220124.12
TTAA  74111 48698
99006 29456 03503 00084 28656 06006 92770 22006 00000
85504 17217 01004 70148 10462 02006 50586 04945 16510
40759 14174 25006 30970 29761 10006 25098 40333 21506
20245 53344 17014 15424 68550 08025 10656 82156 10058
88108 83342 11074
77108 11074 42647=
TTCC  74115 48698
70860 75762 24014 50055 76162 01012
88727 77560 24525
77999=
TTDD  7411/ 48698
11927 83950 22911 82357 33891 74962 44727 77560 55639 74762
66550 76962 77480 76362 88464 75363 99450 70567 11348 65970
22334 62376 33309 61375
21212 11921 09039 22874 12010 33840 20008 44801 23518 55758
24531 66698 24014 77638 27516 88609 31014 99561 31523 11510
35516 22491 03010 33466 04019 44433 10037 55309 09068=
